c FILE /home/rafael/Documents/HappySet/MIHS/inputs/happygen/output/graph_scale_free_k3_p0.3_v50_20241127_082413.txt
c SOURCE This is a scale-free graph formed for the happy graph colouring problem.
c DESCRIPTION It was generated using the problem generator of Rhyd Lewis
c
c GRAPH STATS
c Seed                             = 1762276895
c Number of Nodes                  = 50
c Number of colours k              = 3
c Number of pre-assignments        = 15
c Number of links per new node     = 5
c Density                          = 0.191837
c 
c The degrees of nodes 1 to 50, respectively, are as follows 
c [24, 20, 19, 18, 18, 18, 18, 17, 17, 16, 15, 14, 13, 12, 10, 10, 9, 8, 8, 8, 8, 8, 8, 7, 7, 7, 
c  7, 7, 7, 6, 6, 6, 6, 6, 6, 6, 5, 5, 5, 5, 5, 5, 5, 5, 5, 5, 5, 5, 5, 5] 
c  
p edge 50 235 3
e 1 2
e 1 3
e 1 4
e 1 5
e 1 6
e 1 7
e 1 9
e 1 10
e 1 11
e 1 12
e 1 15
e 1 20
e 1 21
e 1 22
e 1 24
e 1 25
e 1 29
e 1 30
e 1 33
e 1 35
e 1 43
e 1 44
e 1 46
e 1 48
e 2 3
e 2 4
e 2 5
e 2 6
e 2 8
e 2 10
e 2 13
e 2 14
e 2 15
e 2 19
e 2 22
e 2 26
e 2 28
e 2 32
e 2 33
e 2 42
e 2 44
e 2 46
e 2 47
e 3 4
e 3 5
e 3 7
e 3 8
e 3 10
e 3 11
e 3 12
e 3 14
e 3 18
e 3 24
e 3 29
e 3 30
e 3 31
e 3 34
e 3 37
e 3 40
e 3 43
e 4 5
e 4 6
e 4 7
e 4 9
e 4 10
e 4 11
e 4 13
e 4 14
e 4 17
e 4 23
e 4 25
e 4 28
e 4 32
e 4 47
e 4 50
e 5 6
e 5 8
e 5 10
e 5 11
e 5 12
e 5 13
e 5 15
e 5 16
e 5 17
e 5 26
e 5 27
e 5 28
e 5 38
e 5 43
e 6 8
e 6 9
e 6 10
e 6 12
e 6 14
e 6 15
e 6 17
e 6 20
e 6 21
e 6 22
e 6 24
e 6 25
e 6 34
e 6 35
e 7 9
e 7 13
e 7 15
e 7 17
e 7 18
e 7 19
e 7 23
e 7 26
e 7 29
e 7 33
e 7 37
e 7 38
e 7 40
e 7 41
e 7 42
e 8 10
e 8 16
e 8 17
e 8 18
e 8 19
e 8 23
e 8 27
e 8 28
e 8 31
e 8 36
e 8 37
e 8 38
e 8 42
e 9 10
e 9 11
e 9 12
e 9 21
e 9 24
e 9 29
e 9 30
e 9 31
e 9 32
e 9 41
e 9 45
e 9 48
e 9 50
e 10 11
e 10 16
e 10 25
e 10 30
e 10 31
e 10 36
e 10 48
e 10 49
e 11 13
e 11 14
e 11 16
e 11 17
e 11 35
e 11 37
e 11 39
e 11 40
e 11 49
e 12 22
e 12 24
e 12 25
e 12 33
e 12 37
e 12 41
e 12 45
e 12 47
e 12 50
e 13 19
e 13 21
e 13 26
e 13 27
e 13 39
e 13 41
e 13 45
e 13 48
e 14 18
e 14 20
e 14 22
e 14 23
e 14 26
e 14 30
e 14 39
e 15 18
e 15 20
e 15 33
e 15 38
e 15 47
e 16 20
e 16 28
e 16 31
e 16 36
e 16 42
e 16 50
e 17 19
e 17 40
e 17 43
e 18 23
e 18 34
e 18 45
e 19 20
e 19 32
e 19 34
e 20 21
e 20 43
e 21 27
e 21 45
e 21 47
e 22 32
e 22 36
e 22 49
e 23 35
e 23 40
e 23 50
e 24 39
e 24 44
e 25 41
e 25 48
e 26 27
e 26 34
e 27 38
e 27 46
e 28 36
e 28 49
e 29 35
e 29 42
e 29 44
e 30 46
e 31 35
e 32 44
e 33 46
e 34 39
e 36 49
n 11 3
n 19 1
n 20 1
n 21 1
n 26 1
n 28 3
n 30 2
n 31 3
n 32 1
n 33 3
n 35 3
n 39 3
n 40 3
n 45 1
n 50 3
